Joy 9.824672
ce 1.3433393
ĠCarol 3.9929528
ĠO 0.047976255
ates 0.0004340069
' 4.1365337
Ġshort 3.8542655
Ġstory 0.31789058
, 1.6896864
Ġ" 0.30839127
Where 6.069266
ĠAre 1.0615106
ĠYou 0.26114765
ĠGoing 0.045698043
, 0.26680565
ĠWhere 0.037910078
ĠHave 0.011450256
ĠYou 0.00736738
ĠBeen 0.022360368
?", 1.9860027
Ġleaves 7.9336514
Ġreaders 2.892885
Ġwith 0.9412739
Ġa 0.87126696
Ġlingering 4.7828636
Ġsense 1.2659858
Ġof 0.08919452
Ġune 1.5168644
ase 0.29439354
Ġand 1.6943326
Ġambiguity 4.5388193
Ġregarding 4.452172
Ġthe 0.59603494
Ġfate 3.25611
Ġof 0.05667951
Ġthe 1.0508476
Ġprotagonist 1.9688689
, 0.78265965
ĠConnie 6.6439047
. 1.1749504
ĠThrough 4.8967657
Ġthe 1.0364777
Ġmaster 9.235154
ful 0.23883401
Ġuse 0.43454766
Ġof 0.010220638
Ġsymbolism 3.075825
Ġand 0.9230416
Ġliterary 3.95469
Ġdevices 0.49411628
, 0.19159472
ĠO 0.41405252
ates 0.0051904707
Ġskill 5.3132353
fully 0.00010926496
Ġcrafts 6.059228
Ġa 0.47374007
Ġnarrative 3.6668973
Ġthat 0.587472
Ġallows 4.471232
Ġfor 3.0575395
Ġmultiple 2.5392177
Ġinterpretations 0.34297457
, 2.2628713
Ġall 3.6864486
uding 4.109354
Ġto 0.053372074
Ġthe 0.74165183
Ġpotential 5.548927
Ġdangers 4.454938
Ġand 2.036628
Ġconsequences 2.1127841
Ġfaced 6.5599437
Ġby 0.103586905
Ġyoung 5.715732
Ġwomen 1.0633274
Ġin 1.281061
Ġsociety 4.0105934
. 0.98742664
ĠThere 5.9163256
Ġare 0.34686458
Ġindeed 7.1001296
Ġconnections 8.970227
Ġbetween 0.3816587
Ġthe 1.0775427
Ġevents 4.001963
Ġin 1.5310514
Ġthe 0.7452146
Ġstory 0.21536884
Ġand 0.10007304
Ġreal 2.3123925
-life 1.2359676
Ġinstances 3.6929913
Ġof 0.6898559
Ġsexual 1.8305563
Ġassault 0.9712645
Ġand 1.3544633
Ġabduction 6.2301083
Ġthat 2.7294054
Ġresonate 7.0129223
Ġdeeply 2.4161868
Ġwith 0.43178606
Ġreaders 1.6648654
.Ċ 8.285202
At 5.2885857
Ġfirst 2.388601
Ġglance 0.44461063
, 0.038747933
Ġthe 1.0453018
Ġending 6.452878
Ġof 0.29040864
Ġthe 0.6441909
Ġstory 0.09123247
Ġappears 1.4022273
Ġbleak 4.6556897
Ġand 0.8907941
Ġtragic 3.2669866
, 1.0992641
Ġsuggesting 5.046891
ĠConnie 3.6931734
's 0.5910339
Ġdemise 4.296234
Ġat 1.7162638
Ġthe 0.015270492
Ġhands 0.11097338
Ġof 0.0035529088
Ġthe 2.1412663
Ġdisturbing 7.918
Ġcharacter 3.6738396
Ġknown 4.410406
Ġas 0.22083417
ĠArnold 9.491018
ĠFriend 6.5878654
. 0.24219772
ĠHis 4.6805677
Ġpresence 2.753342
Ġis 1.7625307
Ġsuff 9.886642
used 2.9004242
Ġwith 0.2516543
Ġsymbolism 5.587921
, 0.9479277
Ġrepresenting 4.2262545
Ġthe 0.93061346
Ġevils 6.935854
Ġand 2.1762824
Ġdangers 1.7415869
Ġthat 1.4393959
Ġlur 1.788949
k 0.0033172115
Ġoutside 5.197004
Ġa 4.486207
Ġyoung 1.5069244
Ġgirl 1.6950009
's 0.03401414
Ġshelter 4.4327984
ed 0.5006868
Ġlife 2.0454292
. 0.3842271
ĠHis 3.1923134
Ġdemonic 8.094833
Ġappearance 2.1486835
, 1.89761
Ġexaggerated 7.374739
Ġwith 4.3669796
Ġthe 2.9767404
Ġdescription 7.556123
Ġof 0.16588876
Ġhis 0.65106565
Ġ" 2.8401985
sh 4.523477
ag 0.9952556
gy 0.010007511
, 1.9898871
Ġsh 4.367547
abby 2.084794
, 1.4556316
Ġblack 4.842431
Ġhair 1.648004
Ġthat 4.6417055
Ġlooked 3.551603
Ġcrazy 9.542871
Ġas 3.5884166
Ġa 1.3790925
Ġwig 5.0324116
," 0.81725633
Ġimplies 4.889166
Ġa 2.310955
Ġsinister 3.3449273
Ġintent 5.556609
Ġright 9.510736
Ġfrom 0.3258001
Ġthe 0.030542567
Ġstart 0.8614733
. 0.7032112
ĠO 3.7758389
ates 0.0048514805
Ġalso 2.5222168
Ġmakes 3.3218055
Ġuse 1.9225551
Ġof 0.0033801878
Ġirony 4.7303686
Ġwhen 3.7898784
ĠArnold 2.2426476
ĠFriend 0.33685338
Ġdrives 8.282794
Ġa 1.9450698
Ġgolden 9.247548
Ġconvertible 3.9244478
, 3.0880504
Ġa 2.071035
Ġsymbol 1.262033
Ġoften 4.9011407
Ġassociated 0.6014607
Ġwith 0.0075235777
ĠAmerican 6.3236656
Ġdreams 5.073057
Ġand 0.56415486
Ġfreedom 3.0359797
, 0.9825005
Ġturning 7.89595
Ġit 2.2936327
Ġinto 0.08867606
Ġa 0.34241277
Ġtwisted 7.4251657
Ġemblem 6.370736
Ġof 0.15419087
Ġmale 4.181057
vol 4.514623
ence 0.0033236265
.Ċ 2.5153594
The 1.902869
Ġauthor 4.4064684
Ġemploys 4.36677
Ġvarious 3.6733952
Ġliterary 0.776021
Ġdevices 0.20093575
Ġto 0.8354283
Ġheight 2.926815
en 0.00068705616
Ġthe 0.18913391
Ġtension 1.5321618
Ġand 1.2329304
Ġfo 6.596164
resh 0.00016456447
adow 0.0040780474
Ġthe 0.6429022
Ġtragic 3.366898
Ġoutcome 2.0191102
. 1.5564178
ĠThe 1.5076394
Ġtelephone 11.658524
Ġconversations 4.458477
Ġbetween 0.59172803
ĠConnie 0.7501784
Ġand 0.049735438
ĠArnold 0.35821408
ĠFriend 0.18862446
Ġare 1.3067403
Ġladen 5.791912
Ġwith 0.0072412216
Ġdouble 4.8066936
Ġentend 1.2649262
re 1.4192693
Ġand 1.2797191
Ġsymbolism 4.212161
, 1.097506
Ġparticularly 4.6888657
Ġthrough 5.145715
Ġthe 0.3856877
Ġincess 9.001293
ant 0.016429747
Ġrepetition 1.4902141
Ġof 0.03278753
Ġphrases 3.4144244
Ġsuch 0.7445474
Ġas 0.005460117
Ġ" 0.19275182
G 6.4742384
onna 5.094053
Ġget 2.47885
Ġya 3.485015
, 1.6903319
Ġbaby 3.4846249
." 1.8323282
ĠThis 2.5846767
Ġrepetition 2.0674527
Ġeng 8.539258
enders 0.09776428
Ġa 0.7228682
Ġsense 0.84574807
Ġof 0.01419841
Ġdread 2.4847803
Ġand 0.99406844
Ġemphasizes 7.412565
Ġthe 0.34605536
Ġrelentless 8.086281
Ġpursuit 2.5156922
Ġof 0.3056578
Ġyoung 5.561755
Ġwomen 0.64672285
Ġin 2.8831666
Ġreal 6.165508
-life 1.08214
Ġinstances 2.0058396
Ġof 0.2395863
Ġsexual 0.34238645
Ġassault 0.31420422
. 1.1496689
ĠThe 1.4345235
Ġdistress 11.187035
ing 0.73571265
Ġreality 5.1587567
Ġbehind 3.8489423
Ġthe 0.76631296
Ġnarrative 5.2854776
Ġis 0.88458
Ġaccent 4.613064
uated 0.00023464888
Ġas 4.3381524
Ġthe 1.2238845
Ġstory 1.9030948
Ġprogresses 0.6407985
, 0.6342085
Ġwith 2.6217093
ĠO 4.157904
ates 0.0019188835
Ġmaster 7.110087
fully 0.012736717
Ġbuilding 4.047474
Ġtension 2.3424585
Ġthrough 1.9677864
Ġthe 0.9075166
Ġuse 1.585555
Ġof 0.005538489
Ġsuspense 3.5531049
, 2.5477233
Ġclimax 4.455947
, 0.4399368
Ġand 0.10237955
Ġan 4.529464
Ġabrupt 2.8572726
Ġending 1.3097245
, 3.4750628
Ġleaving 2.0670164
ĠConnie 6.3448324
's 1.4515858
Ġfate 0.25719312
Ġuncertain 2.1456528
.Ċ 1.403652
One 4.007539
Ġinterpretation 4.5320415
Ġof 0.2577961
ĠConnie 4.4127026
's 0.027303616
Ġfate 0.612628
Ġis 1.0489755
Ġthat 0.39507622
Ġher 3.4124126
Ġabduction 2.253654
Ġby 2.3325655
ĠArnold 0.3942582
ĠFriend 0.0073532974
Ġrepresents 2.6583688
Ġthe 1.0768231
Ġloss 4.4265347
Ġof 0.031972516
Ġinnocence 0.5537581
Ġand 1.2461351
Ġthe 1.1879458
Ġdangers 3.4231646
Ġfaced 3.1866858
Ġby 0.041430004
Ġyoung 0.31869248
Ġwomen 0.51323575
Ġin 0.53114533
Ġsociety 0.75091255
. 0.14150216
ĠConnie 2.7855346
's 0.9237095
Ġyouthful 6.222247
Ġna 0.9254296
iv 0.6477538
ety 0.41851512
Ġand 1.0483649
Ġsuperficial 7.322994
ity 1.0529662
, 2.6475186
Ġdepicted 6.510672
Ġthrough 1.207005
Ġher 0.657269
Ġobsession 4.6238346
Ġwith 0.02948536
Ġher 2.889519
Ġappearance 3.3497798
Ġand 0.66409457
Ġpopularity 6.285543
, 0.26433337
Ġcould 5.2534046
Ġbe 0.6955927
Ġseen 1.7684755
Ġas 0.083205625
Ġthe 2.989232
Ġvulnerabilities 8.365064
Ġthat 0.84332705
Ġassail 8.166874
ants 4.8817973
Ġexploit 1.8913165
. 1.9200073
ĠArnold 1.4434677
ĠFriend 0.014713632
's 1.0143378
Ġmanipulation 4.4250817
Ġand 1.7699858
Ġcoercion 4.3969536
Ġmirror 8.064138
Ġthe 0.42380944
Ġtactics 3.693329
Ġused 0.8405781
Ġby 0.1960215
Ġpredators 1.8544644
, 2.1000683
Ġand 2.7224758
Ġthe 1.6276543
Ġstory 3.7471669
Ġserves 3.3020802
Ġas 0.25232616
Ġa 0.2685903
Ġchilling 4.1325636
Ġreminder 1.1533407
Ġof 0.600262
Ġthe 0.21482027
Ġreal 4.8846927
-life 0.4094364
Ġdangers 1.2000761
Ġfaced 1.2831337
Ġby 0.008556655
Ġyoung 0.29027063
Ġwomen 0.3416895
.Ċ 1.6475
However 3.792698
, 0.0048965504
Ġanother 1.7532887
Ġinterpretation 0.21123376
Ġsuggests 2.4730115
Ġthat 0.12929344
Ġthe 1.5827737
Ġending 2.8824954
Ġof 0.50964105
Ġthe 0.06282311
Ġstory 0.022752684
Ġis 1.0086128
Ġa 1.6374322
Ġmetaphor 1.8033459
ical 1.5439855
Ġrepresentation 1.5070225
Ġof 0.028822044
Ġthe 0.8675666
Ġinternal 7.0817757
Ġstruggle 1.5512569
Ġwithin 4.9957857
ĠConnie 0.31536093
's 1.5067259
Ġmind 0.6722536
. 0.6709041
ĠArnold 3.0166316
ĠFriend 0.010698537
Ġcan 6.8469687
Ġbe 0.19122851
Ġseen 0.4632763
Ġas 0.071709916
Ġa 0.76994014
Ġperson 4.54018
ification 0.10005072
Ġof 0.02953026
ĠConnie 2.2610624
's 0.08300179
Ġown 1.7450485
Ġfears 2.4521542
Ġand 0.41443855
Ġinse 1.0158955
curities 0.00010831134
, 0.43153775
Ġthe 3.313834
Ġembodiment 4.159666
Ġof 0.016656037
Ġthe 1.1194241
Ġconsequences 7.2349024
Ġof 0.8030296
Ġher 1.123063
Ġactions 1.375287
. 0.5547544
ĠThe 1.7168456
Ġstory 2.755458
Ġhighlights 4.6040826
Ġthe 0.7146182
Ġdangerous 4.6726613
Ġallure 4.539147
Ġand 2.688719
Ġconsequences 3.6300256
Ġof 0.17261475
Ġwanting 6.9213185
Ġto 0.19614936
Ġgrow 8.361529
Ġup 0.0633666
Ġtoo 0.6671278
Ġfast 0.5819227
, 0.73369396
Ġsymbol 6.820949
ized 0.8905791
Ġby 0.27564794
ĠConnie 0.7663957
's 0.06325751
Ġrebell 7.2110558
ious 0.002550812
Ġbehavior 2.159885
. 2.0403144
ĠThe 1.8027732
Ġending 4.557761
Ġthus 5.539519
Ġbecomes 3.779565
Ġa 0.390879
Ġmetaphor 1.0156054
ical 0.762917
Ġwarning 4.5568395
Ġabout 2.7317557
Ġthe 0.16728505
Ġdangers 0.6947212
Ġof 0.5517629
Ġsucc 4.785597
umbing 0.0004419936
Ġto 0.0066556884
Ġsocietal 3.6210628
Ġpressures 0.21406125
Ġand 0.6613883
Ġthe 1.667257
Ġloss 5.4214134
Ġof 0.0058292532
Ġone 1.439826
's 0.0058352994
Ġidentity 3.263618
.Ċ 0.99928683
The 1.7952936
Ġevents 5.4253697
Ġdepicted 1.9355799
Ġin 0.044924956
ĠO 3.5431561
ates 0.0022021208
' 0.07342828
Ġstory 0.5251312
Ġund 11.463076
eni 0.012426065
ably 7.159661e-05
Ġdraw 6.3895683
Ġconnections 3.6316166
Ġto 1.0360086
Ġreal 0.2585024
-life 0.04845938
Ġinstances 0.5144278
Ġof 0.023488645
Ġsexual 0.08695377
Ġassault 0.1816486
Ġand 0.44558486
Ġabduction 0.21522495
. 0.58793193
ĠThe 1.4967659
Ġpower 5.865329
Ġdynamics 2.9344378
, 3.6125464
Ġmanipulation 5.046541
, 0.33542648
Ġand 0.17124118
Ġthreats 3.4875834
Ġemployed 5.698235
Ġby 0.08025283
ĠArnold 1.4388484
ĠFriend 0.0023346166
Ġreflect 4.643668
Ġthe 0.38812995
Ġtactics 2.238734
Ġused 0.45115876
Ġby 0.10407391
Ġperpetrators 3.1418743
Ġin 1.992876
Ġreal 1.0209378
-life 0.1214764
Ġcases 3.0580442
. 1.231745
ĠBy 5.0231276
Ġillustrating 5.101237
Ġthe 0.5423428
Ġdangers 1.2189542
Ġlurking 5.296499
Ġoutside 0.35416767
Ġthe 1.4839822
Ġfamiliar 6.579274
Ġconfines 2.3089411
Ġof 0.012585935
Ġa 0.7684882
Ġteenage 4.3935704
Ġgirl 0.066265166
's 0.012866773
Ġworld 1.9041247
, 0.051994722
ĠO 0.54225576
ates 0.0008698908
Ġimplicitly 7.2444234
Ġcritiques 6.166527
Ġsocietal 4.187436
Ġattitudes 1.9731839
Ġand 1.3266709
Ġsheds 8.453711
Ġlight 0.07680085
Ġon 0.029217726
Ġthe 0.19079006
Ġimportance 4.427406
Ġof 0.010972004
Ġvigil 5.9909935
ance 0.0013915427
Ġand 0.6053519
Ġself 2.071331
-aware 1.6170356
ness 0.00039015833
.Ċ 1.2353528
In 3.2651198
Ġconclusion 2.0766118
, 0.0027472193
Ġthe 1.2897307
Ġending 2.402529
Ġof 0.033356234
Ġ" 1.3259146
Where 0.0017188542
ĠAre 0.026802374
ĠYou 0.0029038973
ĠGoing 0.00097327895
, 0.020961184
ĠWhere 0.0029224453
ĠHave 0.0028435101
ĠYou 0.0062302332
ĠBeen 0.024450943
?" 0.1513419
Ġinvites 6.5586376
Ġmultiple 1.8716471
Ġinterpretations 0.08411698
, 0.95832145
Ġeach 4.1328754
Ġsuggesting 4.552684
Ġthe 2.3279605
Ġhar 10.044115
rowing 0.003961213
Ġconsequences 1.5627587
Ġfaced 2.7178948
Ġby 0.0034037132
Ġyoung 0.4449959
Ġwomen 0.09337991
Ġin 0.44004533
Ġsociety 0.50128937
. 0.1536506
ĠJoyce 7.7376957
ĠCarol 0.0080213295
ĠO 0.0014636922
ates 0.00058055413
Ġexpert 5.4861846
ly 0.0002454854
Ġemploys 3.3171704
Ġsymbolism 0.98036116
Ġand 0.38692236
Ġliterary 0.046794888
Ġdevices 0.036684092
Ġto 0.15681426
Ġunderline 7.3384185
Ġthe 0.17661183
Ġpotential 4.382701
Ġdangers 0.10557727
Ġand 0.40004072
Ġfears 8.163062
Ġthat 0.93742543
Ġexist 4.629649
Ġbeyond 2.772498
Ġthe 0.4927596
Ġsurface 5.788461
Ġof 0.94431525
Ġseemingly 7.33032
Ġordinary 2.3454173
Ġlives 0.7658061
. 0.43418872
ĠThe 1.2840632
Ġconnections 7.5289736
Ġbetween 0.45334342
Ġthe 0.33116937
Ġevents 0.48707253
Ġin 0.58285886
Ġthe 0.07506207
Ġstory 0.028757982
Ġand 0.022260915
Ġreal 0.19155318
-life 0.010660684
Ġinstances 0.19471985
Ġof 0.012848181
Ġsexual 0.01734891
Ġassault 0.023330731
Ġand 0.20805344
Ġabduction 0.04091531
Ġunderscore 4.3963866
Ġthe 0.07509092
Ġrelevance 4.1983576
Ġand 1.6263934
Ġimpact 4.5394773
Ġof 0.05207134
Ġthe 0.6035231
Ġstory 0.6831997
, 1.7297244
Ġreminding 2.64709
Ġreaders 0.28589603
Ġof 0.6266928
Ġthe 0.02718854
Ġongoing 6.0094385
Ġstruggles 4.1753902
Ġfaced 0.8743489
Ġby 0.0033312335
Ġcountless 6.4637403
Ġindividuals 4.40867
Ġin 2.0190537
Ġsociety 1.1207875
Ġtoday 3.0959525
. 1.0138626
