▁It 5.033158779144287
▁was 2.3221545219421387
▁cold 6.602232456207275
, 1.806044578552246
▁and 2.2877190113067627
▁d 4.813950061798096
amp 0.11429093033075333
, 0.6729682087898254
▁and 0.18975834548473358
▁miser 3.6120073795318604
able 0.03484412655234337
. 0.8243433833122253
▁A 4.3637375831604
▁reason 8.76696491241455
ably 0.6753242611885071
▁normal 4.77642822265625
▁day 1.3485069274902344
▁in 0.8183385133743286
▁the 1.579525113105774
▁south 4.979758262634277
▁east 2.9755032062530518
▁of 0.44905373454093933
▁England 0.1576145440340042
▁around 9.193953514099121
▁this 1.9029006958007812
▁time 0.014210461638867855
▁of 0.0836256742477417
▁year 0.17362990975379944
. 0.3325287997722626
▁Men 10.039213180541992
▁and 1.5632050037384033
▁women 0.06521783024072647
▁in 2.9716145992279053
▁white 5.368364334106445
▁over 2.7525455951690674
alls 0.09915736317634583
▁were 1.7181322574615479
▁sc 3.4722647666931152
our 3.5691757202148438
ing 0.012393122538924217
▁the 0.3472069203853607
▁scene 6.804610252380371
▁for 2.456265687942505
▁evidence 1.6070743799209595
▁whilst 5.870565891265869
▁others 1.9895859956741333
▁were 1.7618542909622192
▁plant 8.183692932128906
ing 0.027846012264490128
▁down 8.338944435119629
▁number 6.691717147827148
▁markers 4.556025981903076
▁and 1.6498697996139526
▁taking 2.8418753147125244
▁photos 2.152876853942871
. 0.6821380853652954
<0x0A> 1.57829749584198
" 4.627553939819336
In 5.346014022827148
spect 1.4773536920547485
or 0.04390926659107208
?" 4.474122047424316
▁a 2.58559250831604
▁voice 1.110234260559082
▁cut 4.80258846282959
▁through 0.32010722160339355
▁the 0.20134013891220093
▁still 4.100673198699951
▁mist 5.747517108917236
▁as 4.741133213043213
▁Gre 9.544991493225098
aves 2.587937116622925
▁st 4.538280010223389
om 1.980946660041809
ped 0.003916591871529818
▁up 3.2413828372955322
▁the 0.7175803780555725
▁hill 2.363739013671875
▁and 3.4158501625061035
▁showed 9.122289657592773
▁his 0.8388850688934326
▁bad 1.930323600769043
ge 0.0047860052436590195
▁to 0.7715774178504944
▁the 0.4286462366580963
▁officer 2.7533583641052246
▁man 3.7503585815429688
ning 0.028127731755375862
▁the 0.0645340085029602
▁police 4.129106521606445
▁t 0.9999773502349854
ape 0.012194356881082058
. 0.3426240086555481
<0x0A> 0.5427168607711792
" 0.14093685150146484
What 3.0977437496185303
' 1.291150450706482
ve 2.274549722671509
▁we 0.4135214388370514
▁got 0.010481679812073708
?" 0.825272262096405
▁Gre 1.5705251693725586
aves 0.000831830664537847
▁gr 4.128439426422119
umbled 1.2729662656784058
. 1.426754117012024
▁The 3.3577871322631836
▁morning 4.322571277618408
▁coffee 7.047686576843262
▁not 8.186278343200684
▁having 1.6248977184295654
▁k 1.4874088764190674
icked 5.3049541747896e-05
▁in 0.0163260567933321
▁quite 3.47627329826355
▁yet 0.26922211050987244
▁and 3.233510971069336
▁he 1.9164737462997437
▁was 0.6606913208961487
▁still 1.9889329671859741
▁bl 7.426491737365723
inking 1.3168015480041504
▁the 1.5145455598831177
▁sleep 1.086837649345398
▁out 1.107983946800232
▁of 0.028431789949536324
▁his 0.01749325729906559
▁eyes 0.05875572934746742
. 0.0898522213101387
<0x0A> 0.18093429505825043
" 0.1318465918302536
Double 6.698424816131592
▁hom 1.4787791967391968
ic 0.005546545144170523
ide 0.0009475069819018245
" 4.106235980987549
▁replied 4.446077823638916
▁the 0.06423389911651611
▁officer 0.4284456968307495
▁" 2.7857863903045654
M 3.6524264812469482
ale 1.0390899181365967
▁and 0.3086525797843933
▁female 0.15749390423297882
▁of 5.046914100646973
▁around 2.4688196182250977
▁the 2.3021562099456787
▁ages 4.672140598297119
▁twenty 5.248840808868408
. 5.485121250152588
▁We 2.8159804344177246
' 0.7035677433013916
re 1.2334823608398438
▁still 1.7998329401016235
▁running 4.610897541046143
▁identity 6.059493064880371
▁checks 0.33493274450302124
▁so 5.2055463790893555
▁for 4.853366374969482
▁now 0.5892183184623718
▁they 2.1097545623779297
' 0.16220781207084656
re 0.08569289743900299
▁just 1.176292896270752
▁going 5.201392650604248
▁down 4.987812042236328
▁as 0.03591205179691315
▁Jack 6.569794178009033
▁and 0.07742884010076523
▁J 0.14860741794109344
ill 0.003225097432732582
▁respectively 6.05914306640625
. 1.1277549266815186
▁For 6.348487377166748
ens 0.5133968591690063
ics 0.11755231767892838
▁hasn 5.919591426849365
' 0.005512502510100603
t 0.0004232229257468134
▁got 2.1491494178771973
ten 2.718735933303833
▁into 4.257998466491699
▁the 0.2777157127857208
▁cause 8.107470512390137
▁of 0.11670703440904617
▁death 0.012192364782094955
▁as 3.482137441635132
▁there 4.844994068145752
' 0.33192896842956543
s 0.016102641820907593
▁no 2.3671016693115234
▁apparent 5.051154136657715
▁blood 5.969034194946289
▁or 2.004716157913208
▁w 2.5294606685638428
ounds 0.14130529761314392
▁on 2.1173958778381348
▁the 0.5536595582962036
▁individuals 9.055462837219238
▁which 5.9059977531433105
▁leads 2.4733216762542725
▁us 1.108513593673706
▁to 0.018707485869526863
▁believe 0.24159707129001617
▁it 1.8686163425445557
▁could 3.842233657836914
▁have 1.2845958471298218
▁potentially 8.126933097839355
▁been 0.06797217577695847
▁a 1.0653237104415894
▁poison 2.264538288116455
ing 0.5024847388267517
". 4.469306945800781
▁The 3.504476308822632
▁younger 6.267360210418701
▁officer 0.34854069352149963
▁took 4.320481300354004
▁off 3.352102279663086
▁her 4.994385719299316
▁cap 3.658993721008301
▁and 0.4471593201160431
▁smooth 4.26938009262085
ed 0.006313602905720472
▁her 1.0450750589370728
▁bl 3.15134596824646
onde 0.08162641525268555
▁hair 0.13289985060691833
. 1.9648441076278687
▁Gre 2.91829514503479
aves 0.0012541526230052114
▁estimated 7.1169586181640625
▁her 0.8690681457519531
▁to 0.40258270502090454
▁be 0.026536842808127403
▁around 0.9718237519264221
▁the 2.2911219596862793
▁age 1.0979300737380981
▁of 0.018940657377243042
▁ 1.8428928852081299
3 2.308283805847168
0 0.4837301969528198
, 1.7813169956207275
▁stress 11.905031204223633
▁lines 1.4798853397369385
▁around 2.271301746368408
▁her 0.18402783572673798
▁eyes 0.2991655170917511
▁suggested 4.306862831115723
▁that 2.0349175930023193
▁she 0.5884696245193481
▁wasn 3.2463626861572266
' 0.004620361607521772
t 3.171017306158319e-05
▁getting 3.9253592491149902
▁much 1.4004360437393188
▁sleep 0.2761574387550354
. 1.239701747894287
<0x0A> 0.5003692507743835
As 5.90342903137207
▁they 1.950465440750122
▁approached 2.8417575359344482
▁the 0.14036494493484497
▁white 5.734284400939941
▁tent 1.1908379793167114
▁covering 4.236304759979248
▁the 0.19457103312015533
▁bodies 0.8233109712600708
▁they 3.8801708221435547
▁were 1.067959189414978
▁intercept 7.525594234466553
ed 0.0007183150737546384
▁by 0.024696987122297287
▁a 0.8863604664802551
▁well 5.398654937744141
▁dressed 0.4846252202987671
▁gentleman 3.489407539367676
. 2.323181390762329
▁Sw 9.364357948303223
ing 2.386186361312866
ing 0.0070780678652226925
▁his 0.7914450764656067
▁can 2.8870115280151367
e 0.005498177837580442
▁as 3.5239341259002686
▁he 0.34015586972236633
▁walked 0.7635172605514526
, 1.4385117292404175
▁his 2.494568347930908
▁suit 3.4029808044433594
▁appearing 5.574009895324707
▁surprising 7.9553914070129395
ly 0.02641131728887558
▁dry 4.3404154777526855
▁considering 1.8951268196105957
▁the 0.19698858261108398
▁weather 1.0296869277954102
. 0.3672386109828949
▁He 2.5388293266296387
▁reached 5.360777378082275
▁his 3.613746404647827
▁hand 0.6727634072303772
▁out 0.08484213054180145
▁to 0.9422247409820557
▁sh 1.2827287912368774
ake 0.0005114193772897124
▁the 2.360957384109497
▁Ins 1.638404130935669
pect 0.00023123313440009952
ors 1.0120103359222412
▁and 1.5134810209274292
▁smiled 2.720554828643799
▁a 3.500204086303711
▁to 1.7635151147842407
othy 0.4641112983226776
, 3.0037522315979004
▁well 4.748282432556152
▁pract 2.252443790435791
iced 0.2040921300649643
▁gr 1.475319266319275
in 0.002412484958767891
. 0.1660832017660141
<0x0A> 0.26253828406333923
" 0.037900011986494064
Ah 2.1127285957336426
! 2.8280446529388428
▁Ins 0.8438559174537659
pect 0.00012076630082447082
or 0.012873183935880661
, 1.9144946336746216
▁I 1.450761318206787
▁was 2.0979373455047607
▁hoping 1.711033821105957
▁to 1.159860372543335
▁meet 2.392685890197754
▁you 0.24429690837860107
▁before 3.63016414642334
▁we 2.857938528060913
▁got 2.2875211238861084
▁to 1.9971569776535034
▁the 0.8196818232536316
▁u 9.620484352111816
h 0.2691780626773834
..." 3.185072183609009
▁He 1.7950924634933472
▁paused 1.7194266319274902
▁for 2.0089218616485596
▁a 0.28170666098594666
▁moment 0.3260667622089386
, 1.2266942262649536
▁his 3.3184635639190674
▁eyes 1.3902359008789062
▁d 1.5530281066894531
art 0.0012629255652427673
ing 0.02645544335246086
▁to 1.612274408340454
▁the 0.34154054522514343
▁tent 3.3024656772613525
▁for 4.922853469848633
▁a 0.4440963566303253
▁second 1.6693305969238281
▁"... 4.521703720092773
G 6.509032249450684
rist 6.518809795379639
ly 0.6725683808326721
▁details 0.8996418714523315
. 1.0226831436157227
▁I 0.8036885857582092
' 0.3426911234855652
ll 4.258318901062012
▁be 1.2937809228897095
▁working 3.542851448059082
▁with 0.4474145770072937
▁you 0.23703409731388092
▁on 0.8297908902168274
▁this 0.2461964637041092
▁case 0.6868846416473389
. 2.476755142211914
▁My 1.3177986145019531
▁name 0.051915645599365234
' 1.3089261054992676
s 0.0002114400122081861
▁Gregory 6.018233776092529
, 2.3623814582824707
▁Gregory 3.136357069015503
▁C 4.260883331298828
off 4.9744954109191895
yn 5.8035688400268555
. 1.1328204870224
▁I 0.7892884016036987
' 0.30924779176712036
m 0.28293508291244507
▁one 4.13771915435791
▁of 0.011223840527236462
▁the 0.16910159587860107
▁A 7.747984886169434
bled 12.534222602844238
." 3.2956087589263916
<0x0A> 0.42836183309555054
The 2.3665058612823486
▁' 6.923036575317383
A 0.3668000102043152
bled 0.018433084711432457
' 0.16799773275852203
▁as 2.618374824523926
▁they 1.0089435577392578
' 3.336704730987549
d 0.5042778253555298
▁come 1.09201979637146
▁to 0.002530495636165142
▁have 8.490461349487305
▁been 1.2288963794708252
▁known 1.871250867843628
▁were 1.5410584211349487
▁something 6.291286945343018
▁that 2.4362740516662598
▁still 6.955459117889404
▁remained 5.153595447540283
▁to 4.700491905212402
▁be 0.15914466977119446
▁a 1.4633580446243286
▁mystery 0.6746810674667358
▁to 0.8125468492507935
▁modern 5.965899467468262
▁science 1.141261100769043
. 0.21511846780776978
▁Through 5.913397789001465
out 0.5610378384590149
▁history 0.8830122947692871
▁despite 9.976922988891602
▁the 1.758157730102539
▁adv 2.8328781127929688
ances 0.6378165483474731
▁in 0.4660525619983673
▁technology 1.3618148565292358
, 1.2576379776000977
▁medicine 2.706674337387085
▁and 0.33789798617362976
▁the 2.662092924118042
▁physical 6.41429328918457
▁sciences 0.1260102540254593
▁the 2.4148497581481934
▁A 1.7442256212234497
bled 0.051866307854652405
▁had 0.8731990456581116
▁been 2.4134573936462402
▁very 7.2649126052856445
▁much 1.0196938514709473
▁on 4.525823593139648
▁the 0.06119050458073616
▁par 7.863578796386719
an 0.5245876908302307
ormal 0.0026311890687793493
▁end 3.2690157890319824
▁of 0.025712719187140465
▁things 1.8523021936416626
. 0.19570019841194153
▁Une 9.075759887695312
x 0.2385343313217163
pla 1.5945448875427246
ined 0.0012484234757721424
▁occurr 3.350745677947998
ences 0.0016652493504807353
▁such 2.509458065032959
▁as 0.0055191549472510815
▁floating 6.564957618713379
▁lights 3.0023083686828613
, 0.487062007188797
▁sounds 5.723306655883789
▁that 2.2347426414489746
▁had 3.362971305847168
▁no 0.20384764671325684
▁source 1.344561219215393
▁and 0.9600655436515808
▁floating 8.281174659729004
▁objects 0.7831509709358215
▁t 7.412097930908203
ended 0.020496496930718422
▁to 0.008032849058508873
▁be 0.6857025623321533
▁manifest 9.09976577758789
ations 0.08978258073329926
▁of 0.25454509258270264
▁such 7.1363091468811035
▁individuals 1.444323182106018
. 0.24322864413261414
▁The 2.43703556060791
▁majority 4.114667892456055
▁of 0.1465878039598465
▁them 2.32377552986145
▁were 1.3116490840911865
▁unable 5.4162702560424805
▁to 0.015036231838166714
▁correctly 9.911858558654785
▁att 8.516035079956055
une 0.1541537344455719
▁themselves 1.132276177406311
▁before 8.768182754516602
▁m 7.34738826751709
atur 1.0720468759536743
ity 0.0228947214782238
▁and 0.9051486849784851
▁as 2.1475677490234375
▁a 0.9311197400093079
▁result 0.04076129198074341
▁were 1.6288604736328125
▁never 5.35134220123291
▁quite 3.8439579010009766
▁able 1.368054747581482
▁to 0.007604351732879877
▁get 3.3220529556274414
▁a 1.1216236352920532
▁grasp 2.069570779800415
▁on 0.29129835963249207
▁their 0.7060847282409668
▁ab 0.9412994384765625
ilities 0.0025176480412483215
. 0.4789108335971832
▁However 3.701658248901367
▁those 3.566981315612793
▁that 0.8122974634170532
▁did 1.2029201984405518
▁became 5.759873390197754
▁extra 6.2784576416015625
ordin 0.07314939796924591
arily 0.0038274964317679405
▁tal 3.192723274230957
ented 0.0009137989254668355
▁in 1.2472712993621826
▁whatever 3.7585368156433105
▁special 4.725276947021484
ties 4.323102951049805
▁they 0.1742551475763321
▁focused 3.7104735374450684
▁themselves 3.995124101638794
▁on 0.46510690450668335
. 0.29429036378860474
▁They 3.555802583694458
▁also 4.207370758056641
▁became 3.24654483795166
▁a 2.7151031494140625
▁great 3.757838726043701
▁asset 1.730284571647644
, 5.193170070648193
▁or 3.097635507583618
▁a 1.9410951137542725
▁greater 5.722797870635986
▁threat 1.7183363437652588
. 4.5594987869262695
<0x0A> 1.1068713665008545
" 0.905362069606781
Ah 2.9363224506378174
!" 3.884164810180664
▁Sm 6.93348503112793
iled 0.33037254214286804
▁Gre 0.5305132865905762
aves 0.0019617835059762
▁" 1.1215415000915527
and 6.154262542724609
▁what 2.154229164123535
' 2.8044705390930176
s 0.23960116505622864
▁your 0.3949953317642212
▁par 9.75096321105957
lor 2.489983081817627
▁trick 0.10207688808441162
? 2.3562979698181152
". 2.3352773189544678
▁Gregory 3.373309373855591
▁raised 3.45951509475708
▁an 0.624842643737793
▁e 0.022570880129933357
y 0.0005407006246969104
eb 0.00023886434792075306
row 0.0006964246858842671
▁and 1.2030069828033447
▁purs 5.386439323425293
ed 0.0034213114995509386
▁his 0.004967609886080027
▁lips 0.03242387995123863
▁as 2.6105573177337646
▁he 0.715649425983429
▁ass 5.807535648345947
essed 0.005291250068694353
▁the 0.45900213718414307
▁detect 3.819474935531616
ive 0.006418937351554632
. 0.6307231783866882
▁He 2.7985024452209473
▁st 6.013334274291992
ared 0.6345506906509399
▁at 1.1941375732421875
▁Gre 1.344384789466858
aves 0.0024710404686629772
▁for 0.8439762592315674
▁a 0.19024892151355743
▁moment 0.935307502746582
▁before 1.0352686643600464
▁finally 4.447366714477539
, 5.572093486785889
▁almost 3.0804617404937744
▁rel 1.6936349868774414
uct 0.004452170804142952
antly 0.0023294975981116295
▁adm 6.085968971252441
itting 0.003555052913725376
▁" 0.7362833023071289
I 0.8007199168205261
' 0.8299574851989746
m 0.06193050742149353
▁good 5.567321300506592
▁with 0.7246310710906982
▁time 5.987310886383057
". 1.1621441841125488
▁Gre 2.5489683151245117
aves 0.0023111565969884396
▁made 5.5379862785339355
▁a 0.3355727195739746
▁face 1.2799277305603027
▁" 2.376156806945801
Time 3.097860813140869
?" 2.162628650665283
▁he 1.0433852672576904
▁asked 1.3967735767364502
▁apparently 9.910528182983398
▁un 2.8089439868927
im 0.4955216646194458
pressed 0.0008623740868642926
▁at 5.31602668762207
▁the 0.6141843795776367
▁explanation 4.772810459136963
. 0.48204749822616577
▁" 1.1713058948516846
Can 5.237570285797119
▁you 0.9650981426239014
▁maybe 7.446868419647217
▁un 6.597700595855713
pack 3.94970703125
▁that 0.09382233768701553
▁for 0.9990853667259216
▁me 0.08563082665205002
? 1.5171153545379639
▁Us 9.703912734985352
▁normal 1.9602433443069458
▁folk 0.4006320834159851
▁don 1.6611911058425903
' 0.0015514004044234753
t 0.0001560571399750188
▁quite 1.7104753255844116
▁understand 0.7091505527496338
▁whatever 9.337738990783691
▁w 5.004470348358154
itch 0.6940963864326477
craft 0.2605973482131958
, 6.1433939933776855
▁sor 2.4898152351379395
c 0.009854492731392384
ery 0.0002962193393614143
▁or 0.4550911784172058
▁magic 2.596247911453247
▁you 0.5293558239936829
▁might 3.3659205436706543
▁do 5.965078830718994
". 1.544751763343811
▁Gregory 1.212660551071167
▁shift 4.690439224243164
ed 0.00025782332522794604
▁un 1.5106666088104248
com 0.0009881369769573212
fort 0.0010125397238880396
ably 0.03154456987977028
▁and 1.6744489669799805
▁looked 2.4173519611358643
▁down 2.0763301849365234
▁at 0.5480773448944092
▁his 0.6346046328544617
▁sho 1.0890141725540161
es 0.0003630582068581134
▁whilst 5.886944770812988
▁t 4.790186882019043
apping 0.07912858575582504
▁his 0.5618898868560791
▁can 0.25957080721855164
e 0.002819635206833482
▁on 1.1185214519500732
▁the 0.009696193039417267
▁grass 3.37758207321167
. 0.4129520654678345
▁He 2.8025083541870117
▁pulled 5.375901699066162
▁out 1.8750566244125366
▁a 0.30422917008399963
▁pair 4.499879360198975
▁of 0.0035363903734833
▁glo 3.971994638442993
ves 0.02147398516535759
▁from 1.0622859001159668
▁his 0.31105685234069824
▁pocket 1.303354263305664
, 2.461568832397461
▁run 11.177443504333496
es 1.1143133640289307
▁se 6.154506683349609
wn 0.15340611338615417
▁into 0.5309199094772339
▁the 0.27218005061149597
▁fabric 3.0014965534210205
. 1.479013204574585
▁Gold 10.26067066192627
▁thread 3.4845988750457764
▁we 3.4844584465026855
aved 0.710818350315094
▁into 2.378004550933838
▁the 0.7487902045249939
▁soft 6.584926128387451
▁le 0.36633846163749695
ather 0.00618806853890419
▁forming 4.860391139984131
▁intr 3.021942138671875
icate 0.004677189979702234
▁symbols 2.288010835647583
▁of 3.7314352989196777
▁power 2.2879226207733154
▁that 3.5251071453094482
▁helped 5.870870113372803
▁the 2.817795991897583
▁A 1.8123129606246948
bled 0.04468557983636856
▁focus 1.8871228694915771
▁their 0.5007415413856506
▁tal 3.9697277545928955
ents 0.00071950803976506
. 0.19839556515216827
▁" 2.4455482959747314
How 5.6923675537109375
▁about 1.0230965614318848
▁we 1.8131436109542847
▁get 2.4574828147888184
▁to 2.215628147125244
▁it 3.8485918045043945
▁and 2.2426955699920654
▁I 1.202772617340088
' 0.701654851436615
ll 0.004045133478939533
▁demonstrate 5.002081394195557
▁as 4.189873695373535
▁we 0.18526948988437653
▁go 0.31131210923194885
" 2.1490838527679443
▁S 8.461946487426758
ighed 2.3314759731292725
▁Gregory 0.27549776434898376
▁as 2.3024795055389404
▁he 0.13824519515037537
▁lifted 6.644462585449219
▁his 0.9342135190963745
▁can 1.5526031255722046
e 0.001819715602323413
▁to 2.489168167114258
▁indicate 4.354509353637695
▁the 0.8343188762664795
▁tent 0.7319055795669556
▁" 3.596041679382324
after 4.1855854988098145
▁you 1.2850549221038818
". 1.1870931386947632
<0x0A> 0.35223910212516785
Gre 1.3523691892623901
aves 0.0016826234059408307
▁gr 3.724916934967041
unted 0.9554654359817505
▁and 0.7569892406463623
▁st 4.143089771270752
om 0.1740177720785141
ped 0.001833330374211073
▁over 2.128147840499878
▁to 0.21585014462471008
▁the 0.07607124000787735
▁tent 0.2357810139656067
. 0.9353394508361816
▁He 1.4898228645324707
▁lifted 4.271521091461182
▁up 2.7134647369384766
▁the 0.21047116816043854
▁canvas 3.137373685836792
▁f 1.3968520164489746
lap 0.2143227607011795
▁and 0.34322822093963623
▁stepped 2.39987850189209
▁inside 0.6405279040336609
. 0.5207454562187195
<0x0A> 2.6739025115966797
( 7.518498420715332
I 3.1602141857147217
' 0.7881506681442261
ll 1.045804500579834
▁probably 3.59546160697937
▁finish 4.5965375900268555
▁this 0.5828596353530884
▁up 2.002469539642334
▁when 4.240403652191162
▁I 0.17537787556648254
▁get 0.9948210716247559
▁home 1.5063467025756836
▁from 1.532811164855957
▁work 0.19023729860782623
) 1.7923797369003296
