It 4.9288874
Ġwas 2.37684
Ġcold 6.324221
, 1.8308105
Ġand 2.5614746
Ġdamp 4.9503713
, 0.6600445
Ġand 0.19583786
Ġmiserable 3.0450475
. 1.0830665
ĠA 3.7168164
Ġreasonably 10.055095
Ġnormal 4.168997
Ġday 1.2983165
Ġin 0.5218625
Ġthe 1.7367699
Ġsouth 4.754963
Ġeast 2.9356022
Ġof 0.4441641
ĠEngland 0.28349832
Ġaround 7.132689
Ġthis 1.2367771
Ġtime 0.010961277
Ġof 0.08040025
Ġyear 0.17471094
. 0.628198
ĠMen 10.620611
Ġand 1.7429808
Ġwomen 0.07719897
Ġin 2.3032556
Ġwhite 5.511829
Ġover 3.4054363
alls 0.47718653
Ġwere 2.0251076
Ġscour 7.602806
ing 0.002958208
Ġthe 0.21180059
Ġscene 6.672393
Ġfor 1.7155056
Ġevidence 1.3893021
Ġwhilst 6.5906215
Ġothers 2.9843774
Ġwere 1.241267
Ġplanting 9.221338
Ġdown 7.1199746
Ġnumber 8.609682
Ġmarkers 4.876543
Ġand 1.7853359
Ġtaking 2.2615252
Ġphotos 2.163798
.Ċ 8.800551
" 5.765262
Inspector 7.2097473
?" 3.6469376
Ġa 2.176626
Ġvoice 0.961989
Ġcut 4.9232717
Ġthrough 0.45705503
Ġthe 0.25882372
Ġstill 5.313569
Ġmist 6.2904634
Ġas 4.5880275
ĠGre 11.398456
aves 1.1973658
Ġstom 8.355185
ped 0.0036300041
Ġup 2.3830185
Ġthe 2.5052402
Ġhill 1.1040571
Ġand 3.7543197
Ġshowed 8.111498
Ġhis 0.8338561
Ġbadge 2.2434373
Ġto 1.1181674
Ġthe 0.3166451
Ġofficer 2.0747766
Ġman 4.602021
ning 0.0036625485
Ġthe 0.0796207
Ġpolice 5.325216
Ġtape 1.3643707
.Ċ 0.65056634
"What 3.271488
've 4.9550467
Ġwe 0.51496154
Ġgot 0.0116447
?" 1.1144564
ĠGre 1.7687241
aves 0.0017082561
Ġgr 4.096676
umbled 1.3982849
. 2.33255
ĠThe 1.626079
Ġmorning 5.6059837
Ġcoffee 4.196413
Ġnot 7.382134
Ġhaving 1.3352056
Ġkicked 2.0471056
Ġin 0.014928924
Ġquite 3.945304
Ġyet 0.16654325
Ġand 3.8791664
Ġhe 2.2196984
Ġwas 0.8262122
Ġstill 2.2265034
Ġblinking 7.1007853
Ġthe 2.0339172
Ġsleep 0.30573675
Ġout 0.8116362
Ġof 0.039634015
Ġhis 0.011157943
Ġeyes 0.06416339
.Ċ 0.33904636
" 0.86216384
Double 5.6658144
Ġhomicide 0.7415583
" 2.8958535
Ġreplied 3.1961641
Ġthe 0.059267394
Ġofficer 0.5612983
Ġ" 2.6150885
Male 4.756476
Ġand 0.20931679
Ġfemale 0.14647993
Ġof 5.6182046
Ġaround 3.588656
Ġthe 2.89052
Ġages 5.8778777
Ġtwenty 6.505676
. 3.1935349
ĠWe 3.2457256
're 1.7209265
Ġstill 1.6146603
Ġrunning 5.181514
Ġidentity 6.5927153
Ġchecks 0.4595554
Ġso 4.412075
Ġfor 5.1437583
Ġnow 0.533417
Ġthey 1.4247817
're 0.33094063
Ġjust 1.6006968
Ġgoing 3.6244762
Ġdown 7.9800506
Ġas 0.034927316
ĠJack 5.6694174
Ġand 0.07854645
ĠJill 0.303284
Ġrespectively 7.155469
. 1.5384103
ĠFore 5.4777536
ns 0.08879582
ics 0.004755257
Ġhasn 7.1040807
't 0.004277958
Ġgotten 3.7330055
Ġinto 4.7487674
Ġthe 0.32386306
Ġcause 6.4953423
Ġof 0.12669435
Ġdeath 0.018285846
Ġas 3.5131192
Ġthere 4.848446
's 0.41737866
Ġno 2.3108664
Ġapparent 4.29343
Ġblood 4.6379924
Ġor 2.4228067
Ġwounds 3.2983923
Ġon 1.9967811
Ġthe 0.6595371
Ġindividuals 6.313346
Ġwhich 6.265135
Ġleads 3.3881989
Ġus 0.71911603
Ġto 0.03881777
Ġbelieve 0.40214416
Ġit 1.8727055
Ġcould 2.6889973
Ġhave 1.7923371
Ġpotentially 7.0978117
Ġbeen 0.13745862
Ġa 0.9685357
Ġpoisoning 2.521174
". 4.3912725
ĠThe 1.1701707
Ġyounger 7.7576423
Ġofficer 0.45356816
Ġtook 4.012253
Ġoff 3.6127112
Ġher 3.6917706
Ġcap 2.6468954
Ġand 0.41130215
Ġsmoothed 5.272036
Ġher 1.0780535
Ġblonde 3.0649912
Ġhair 0.12999113
. 3.032886
ĠGre 2.901509
aves 0.0027449583
Ġestimated 8.150297
Ġher 0.6862312
Ġto 0.8761544
Ġbe 0.020484194
Ġaround 1.1271806
Ġthe 1.8400507
Ġage 1.0961215
Ġof 0.015904851
Ġ 1.8120661
30 2.9118874
, 1.4636825
Ġstress 11.419257
Ġlines 0.48390454
Ġaround 2.1995304
Ġher 0.308494
Ġeyes 0.20612325
Ġsuggested 4.2921333
Ġthat 1.9541578
Ġshe 0.45343545
Ġwasn 2.7322147
't 0.022299048
Ġgetting 3.5543962
Ġmuch 1.2623812
Ġsleep 0.23836854
.Ċ 1.8981587
As 6.1612926
Ġthey 2.1310344
Ġapproached 3.256715
Ġthe 0.18852147
Ġwhite 6.255247
Ġtent 1.6606586
Ġcovering 4.1488633
Ġthe 0.12774152
Ġbodies 1.1949018
Ġthey 3.7608209
Ġwere 2.037945
Ġintercepted 5.981036
Ġby 0.029428523
Ġa 0.765926
Ġwell 4.756176
Ġdressed 0.86167157
Ġgentleman 2.917723
. 2.4127002
ĠSw 8.943686
inging 1.5412288
Ġhis 0.6893356
Ġcane 4.4923773
Ġas 2.9202065
Ġhe 0.19713284
Ġwalked 0.80917835
, 1.3780032
Ġhis 2.0999079
Ġsuit 4.0740385
Ġappearing 6.7374
Ġsurprisingly 7.900329
Ġdry 4.018019
Ġconsidering 2.3211696
Ġthe 0.1107491
Ġweather 0.78827906
. 1.2856158
ĠHe 1.4673209
Ġreached 5.408498
Ġhis 3.377985
Ġhand 0.7058137
Ġout 0.13480777
Ġto 0.8402738
Ġshake 1.0282809
Ġthe 3.0113227
ĠIns 4.5682216
pect 0.0006346396
ors 0.0023069119
Ġand 2.2999668
Ġsmiled 2.6860619
Ġa 3.2662916
Ġtooth 1.7171744
y 0.038128007
, 3.957822
Ġwell 4.667076
Ġpracticed 2.0756254
Ġgrin 1.4502774
.Ċ 0.42129713
" 0.49378973
Ah 3.3031368
! 4.1611342
ĠInspector 0.71971625
, 3.143343
ĠI 1.5891628
Ġwas 3.020395
Ġhoping 1.5202732
Ġto 1.3871672
Ġmeet 2.2718055
Ġyou 0.11014087
Ġbefore 3.5231044
Ġwe 3.0046813
Ġgot 1.1809556
Ġto 2.3225179
Ġthe 0.91244304
Ġuh 9.927231
..." 3.3234127
ĠHe 1.764133
Ġpaused 1.800602
Ġfor 1.7934816
Ġa 0.11085473
Ġmoment 0.4372682
, 1.3062788
Ġhis 2.8996084
Ġeyes 1.1627952
Ġdart 1.3398992
ing 0.064308815
Ġto 2.1840081
Ġthe 0.5382075
Ġtent 1.6334722
Ġfor 4.3263907
Ġa 0.22068219
Ġsecond 1.5597682
Ġ"... 6.8513665
G 7.1303234
rist 4.739844
ly 1.2563587
Ġdetails 2.03317
. 1.4163632
ĠI 0.7946545
'll 5.0411105
Ġbe 1.5822976
Ġworking 5.186915
Ġwith 0.66099334
Ġyou 0.11205729
Ġon 0.4184551
Ġthis 0.10964956
Ġcase 0.7063525
. 1.6940926
ĠMy 1.6210897
Ġname 0.032321826
's 1.8729922
ĠGregory 6.653737
, 2.7973015
ĠGregory 1.0767816
ĠCoff 9.3381815
yn 5.3411536
. 1.2278214
ĠI 1.0566622
'm 0.7716748
Ġone 4.053357
Ġof 0.011237976
Ġthe 0.19224253
ĠAb 10.979225
led 7.3587337
."Ċ 4.435096
The 2.3196054
Ġ' 5.370237
Ab 0.7406125
led 0.0024812464
' 0.29790476
Ġas 3.0066252
Ġthey 0.4370839
'd 4.316785
Ġcome 0.6595069
Ġto 0.0031105727
Ġhave 9.1514635
Ġbeen 1.2186217
Ġknown 1.0356927
Ġwere 1.0000623
Ġsomething 5.999165
Ġthat 3.0701122
Ġstill 6.0041246
Ġremained 4.332861
Ġto 4.8165517
Ġbe 0.30845731
Ġa 1.7297837
Ġmystery 0.5590602
Ġto 0.75864106
Ġmodern 6.1984944
Ġscience 1.3751178
. 0.22467065
ĠThroughout 7.399393
Ġhistory 1.0051551
Ġdespite 10.143652
Ġthe 1.4411362
Ġadvances 3.0359466
Ġin 0.5598698
Ġtechnology 1.2884921
, 1.3112669
Ġmedicine 1.5245204
Ġand 0.38662586
Ġthe 2.8726273
Ġphysical 6.3161407
Ġsciences 0.40426305
Ġthe 2.2757583
ĠAb 2.502084
led 0.004514735
Ġhad 0.8896767
Ġbeen 2.1735907
Ġvery 6.3282995
Ġmuch 0.7696098
Ġon 4.891844
Ġthe 0.082244694
Ġparanormal 8.15404
Ġend 2.1730466
Ġof 0.016046919
Ġthings 1.7535663
. 0.2334077
ĠUn 6.2114487
explained 1.0955354
Ġoccurrences 3.4647207
Ġsuch 2.3996627
Ġas 0.0073725884
Ġfloating 6.157189
Ġlights 5.0467157
, 0.43088964
Ġsounds 6.7310953
Ġthat 2.6244833
Ġhad 3.9737048
Ġno 0.29246044
Ġsource 1.5947614
Ġand 0.9290989
Ġfloating 7.2413797
Ġobjects 1.0829458
Ġtended 7.3596725
Ġto 0.017612476
Ġbe 0.9073879
Ġmanifestations 9.037325
Ġof 0.0763763
Ġsuch 7.203821
Ġindividuals 2.4768293
. 0.6562166
ĠThe 2.0841708
Ġmajority 4.3859076
Ġof 0.16690892
Ġthem 1.7037206
Ġwere 1.3294332
Ġunable 5.475892
Ġto 0.030289454
Ġcorrectly 9.286719
Ġatt 9.60252
une 0.0071632275
Ġthemselves 1.0110712
Ġbefore 8.557156
Ġmaturity 9.98618
Ġand 0.71373796
Ġas 2.115118
Ġa 1.266108
Ġresult 0.050408393
Ġwere 1.9674777
Ġnever 4.9578266
Ġquite 5.049942
Ġable 0.9322308
Ġto 0.0048107803
Ġget 4.001817
Ġa 1.0604514
Ġgrasp 2.0858672
Ġon 0.31345394
Ġtheir 0.41261405
Ġabilities 0.9133502
. 0.6391296
ĠHowever 3.2776902
Ġthose 3.162891
Ġthat 0.8069762
Ġdid 1.0532606
Ġbecame 3.9907892
Ġextraordinarily 6.701228
Ġtalented 3.3578486
Ġin 1.5116757
Ġwhatever 2.9606192
Ġspecialties 10.342186
Ġthey 0.20273678
Ġfocused 4.3086843
Ġthemselves 4.143675
Ġon 0.51611423
. 0.58502644
ĠThey 3.6720152
Ġalso 4.8426876
Ġbecame 3.1087334
Ġa 3.124468
Ġgreat 4.276456
Ġasset 2.9578576
, 5.169712
Ġor 4.253227
Ġa 1.5350615
Ġgreater 5.7844896
Ġthreat 0.93485755
.Ċ 4.076694
" 2.0077317
Ah 2.4558244
!" 4.570714
ĠSm 7.327042
iled 0.09540238
ĠGre 0.6551991
aves 0.0027967955
Ġ" 0.9357459
and 6.255874
Ġwhat 1.6587137
's 2.3981175
Ġyour 0.28319025
Ġpar 10.816701
lor 0.8981096
Ġtrick 0.036288366
? 2.594059
". 3.1365352
ĠGregory 3.3018599
Ġraised 3.5734968
Ġan 1.0042801
Ġeyebrow 0.024051845
Ġand 1.3680087
Ġpurs 4.3071885
ed 0.00044056313
Ġhis 0.0036232353
Ġlips 0.02484453
Ġas 2.50354
Ġhe 0.99200374
Ġassessed 7.3630714
Ġthe 0.2954001
Ġdetective 2.9783792
. 1.2020953
ĠHe 1.7995752
Ġstared 7.5894175
Ġat 1.0980544
ĠGre 0.8920882
aves 0.0074339933
Ġfor 0.47157243
Ġa 0.1939391
Ġmoment 0.70065284
Ġbefore 1.0703169
Ġfinally 3.9644892
, 6.163949
Ġalmost 3.014583
Ġreluctantly 1.1378721
Ġadmitting 4.991791
Ġ" 1.1596422
I 0.8308959
'm 1.0343764
Ġgood 5.110265
Ġwith 0.46963343
Ġtime 6.468854
". 1.6721588
ĠGre 1.2567728
aves 0.0010874706
Ġmade 5.936474
Ġa 0.18915552
Ġface 1.6650804
Ġ" 2.934998
Time 2.8751059
?" 2.227929
Ġhe 1.1928647
Ġasked 1.5229324
Ġapparently 10.678052
Ġun 2.780645
im 0.22952451
pressed 0.00017410076
Ġat 5.5481176
Ġthe 0.44609484
Ġexplanation 4.2996364
. 0.89047354
Ġ" 0.9934754
Can 5.940002
Ġyou 0.16869783
Ġmaybe 7.579561
Ġunpack 8.651961
Ġthat 0.054243833
Ġfor 1.0587747
Ġme 0.071233906
? 1.6906297
ĠUs 11.029608
Ġnormal 2.4495878
Ġfolk 0.4195932
Ġdon 2.0014281
't 0.002210324
Ġquite 2.8330739
Ġunderstand 1.4182829
Ġwhatever 6.246205
Ġwitch 6.2521167
craft 0.16718137
, 7.642862
Ġsor 1.673201
cery 0.004036964
Ġor 0.4595194
Ġmagic 3.0065377
Ġyou 0.59052783
Ġmight 3.5852997
Ġdo 4.6656356
". 1.6372155
ĠGregory 0.59447193
Ġshifted 5.2646513
Ġuncomfort 1.1377016
ably 0.00010854974
Ġand 1.577706
Ġlooked 2.5048358
Ġdown 1.798345
Ġat 0.5532195
Ġhis 0.51787144
Ġshoes 1.0450615
Ġwhilst 5.6261244
Ġtapping 4.4990044
Ġhis 0.32123113
Ġcane 0.13856788
Ġon 1.038056
Ġthe 0.008190066
Ġgrass 5.202442
. 0.6943885
ĠHe 1.5374573
Ġpulled 5.478788
Ġout 1.4759098
Ġa 0.24093686
Ġpair 4.2955866
Ġof 0.003564189
Ġgloves 3.1823654
Ġfrom 0.6774596
Ġhis 0.31349495
Ġpocket 0.8675874
, 2.6500068
Ġrunes 16.330173
Ġsew 6.372856
n 0.020536643
Ġinto 0.4185875
Ġthe 0.35627002
Ġfabric 1.3364223
. 1.8335865
ĠGold 9.63461
Ġthread 3.513297
Ġwe 4.525917
aved 0.0073504625
Ġinto 1.6745305
Ġthe 0.8173233
Ġsoft 6.329206
Ġleather 1.5184985
Ġforming 6.7416515
Ġintricate 2.1554642
Ġsymbols 2.3220987
Ġof 3.2614582
Ġpower 1.522726
Ġthat 3.8557677
Ġhelped 7.696927
Ġthe 2.87566
ĠAb 1.7353842
led 0.0044190786
Ġfocus 1.8556486
Ġtheir 0.5014143
Ġtalents 3.8536868
. 0.70948344
Ġ" 2.0454984
How 5.5548544
Ġabout 1.117797
Ġwe 1.6888688
Ġget 2.2249503
Ġto 2.1882043
Ġit 2.5339632
Ġand 2.6044877
ĠI 0.8507771
'll 1.1403239
Ġdemonstrate 3.6765525
Ġas 5.399268
Ġwe 0.3951345
Ġgo 0.23628068
" 2.4707942
ĠS 8.113029
igh 1.2961993
ed 0.5434228
ĠGregory 0.26355907
Ġas 2.1067595
Ġhe 0.10266208
Ġlifted 5.562811
Ġhis 0.82294154
Ġcane 1.4197804
Ġto 1.9691805
Ġindicate 5.4941783
Ġthe 1.2155858
Ġtent 0.65533495
Ġ" 3.1410341
after 5.325526
Ġyou 2.1132324
".Ċ 1.1599091
Gre 0.9525491
aves 0.0012842832
Ġgr 4.025607
unted 0.71308976
Ġand 0.82634526
Ġstom 3.9332426
ped 0.00059938093
Ġover 2.6935759
Ġto 0.3228553
Ġthe 0.0595708
Ġtent 0.2758229
. 1.0925627
ĠHe 1.2454698
Ġlifted 4.690075
Ġup 2.091776
Ġthe 0.19666722
Ġcanvas 3.9362638
Ġflap 0.9030519
Ġand 0.26404184
Ġstepped 1.917691
Ġinside 0.4731618
.Ċ 2.6999621
(I 12.267065
'll 2.2789605
Ġprobably 4.6526413
Ġfinish 4.0690494
Ġthis 0.25022924
Ġup 2.5390434
Ġwhen 3.5707703
ĠI 0.06639357
Ġget 0.7438388
Ġhome 0.66569483
Ġfrom 1.572805
Ġwork 0.13311423
) 2.840838
