A 4.12313
Ġpolicy 9.175277
Ġbrief 3.4155364
Ġis 3.0231202
Ġa 0.49054217
Ġconcise 1.4282635
Ġexplanation 7.04664
Ġof 0.09573155
Ġa 0.5557817
Ġparticular 2.5129845
Ġissue 1.5610546
. 1.8425922
ĠThe 2.3737106
Ġbrief 2.0478053
Ġpolicy 10.057255
Ġaims 3.9888039
Ġat 2.3639488
Ġgovernment 10.4066105
Ġpolicymakers 3.3384082
Ġor 2.952066
Ġinterested 5.6269565
Ġparties 1.579696
Ġwho 2.1545417
Ġshape 7.594337
Ġor 2.0247903
Ġinfluence 0.6587049
Ġpolicy 0.9737142
. 0.9577286
ĠA 2.5828812
Ġpolicy 0.31181937
Ġbrief 0.056299724
Ġprovides 3.517655
Ġadequate 8.122948
Ġbackground 2.1771448
Ġfor 4.184715
Ġthe 1.0478106
Ġreader 1.7883319
Ġto 0.66487044
Ġcomprehend 4.336594
Ġthe 0.22862604
Ġproblem 2.202457
Ġand 1.1736866
Ġpersuade 8.000932
Ġthem 1.2299026
Ġto 0.3462334
Ġhandle 10.552058
Ġit 1.1321374
Ġimmediately 5.9225426
. 0.57546306
ĠIt 1.8703753
Ġidentifies 6.0548983
Ġthe 0.6492467
Ġmost 4.0088496
Ġeffective 2.819832
Ġsolutions 2.1860313
Ġto 1.0928538
Ġthe 0.5041851
Ġproblem 0.40768853
Ġand 0.7894305
Ġgives 3.5809765
Ġdata 5.9636908
Ġto 0.9766445
Ġback 1.7674649
Ġthem 2.0337353
Ġup 0.16787383
. 0.42766532
ĠThe 1.7985822
Ġpolicy 1.4661157
Ġbrief 0.09138905
Ġencourages 6.2175922
Ġthe 1.2296275
Ġreader 0.608583
Ġto 0.048870873
Ġmake 3.1257427
Ġthe 2.0948524
Ġbest 2.400313
Ġdecision 0.61186725
Ġpossible 2.1509817
.A 9.291348
Ġgood 3.5169146
Ġpolicy 0.093218
Ġbrief 0.038286824
Ġshould 1.2948239
Ġbe 1.1312014
Ġconcise 3.078012
Ġand 1.156178
Ġfocused 3.9416466
Ġon 1.5188235
Ġmeanings 16.195677
Ġrather 3.3107212
Ġthan 0.008457486
Ġprocedures 7.7418833
. 0.32469827
ĠThe 1.9757416
Ġpolicy 2.0647063
Ġbrief 0.15505327
Ġshould 0.7264044
Ġconcentrate 5.7307606
Ġon 0.078083046
Ġa 2.0013266
Ġsingle 1.0515224
Ġissue 1.3380543
Ġor 2.128837
Ġconcern 4.2749367
Ġand 1.6010681
Ġgive 3.560238
Ġenough 3.6078887
Ġevidence 3.663629
Ġfrom 5.5456104
Ġmultiple 4.760788
Ġsources 0.44136757
Ġ(“ 12.268442
202 10.1431
2 5.273227
ĠN 6.432268
AC 4.3838544
o 2.3254166
ĠLegislative 1.8275154
ĠConference 0.9600421
ĠLiv 10.241738
est 0.024221973
ream 0.003751029
s 2.4648542
”, 2.6484203
Ġ 0.23626769
202 0.2693889
2 1.1157008
).Ċ 6.4247894
Policy 3.4951377
ĠBrief 1.263422
s 1.9154158
Ġon 3.7432303
Ġthe 2.4833748
ĠState 5.404726
, 5.0645804
ĠLocal 1.0398308
Ġand 1.4718969
ĠFederal 2.4219818
ĠIssue 8.2731905
Ċ 0.8972134
1 3.7520196
st 5.47762
Ġpolicy 2.6670158
Ġbrief 0.117560096
Ċ 1.5150661
Esc 11.5649185
al 0.19289161
ating 0.17523761
ĠFood 6.4784927
ĠPrices 1.72389
Ġ– 5.33491
ĠA 2.2525198
Ġnational 5.959711
Ġcrisis 2.6239734
Ċ 1.0416436
Action 8.473417
Ġto 3.0404987
Ġbe 0.6787368
Ġtaken 0.1522686
Ġto 4.069678
Ġeliminate 5.640732
Ġpoverty 5.417241
Ġand 1.391082
Ġhunger 0.7301307
Ċ 1.3782907
Esc 4.1115713
al 0.0005265805
ating 0.01583598
Ġfood 0.28403634
Ġprices 0.054528113
Ġpose 3.7118053
Ġa 0.2262421
Ġproblem 4.83871
Ġto 1.1709135
Ġthe 0.9882532
Ġpoor 3.2339413
, 2.3513613
Ġgovernment 6.81396
Ġof 5.4612446
Ġlow 5.067893
-income 0.48214844
Ġcountries 0.27863
Ġwith 6.156547
Ġhigh 2.6324785
Ġimport 4.5132
Ġbills 1.86549
, 1.1739887
Ġand 0.4454324
Ġaids 10.257344
Ġagencies 1.3829876
Ġmanaging 8.449672
Ġincreased 8.5088415
Ġdemand 2.1052723
Ġfor 0.45107394
Ġcash 7.4175887
Ġand 2.6986394
Ġfood 0.34219125
. 1.9846671
ĠThe 1.337024
Ġpoor 4.0069094
Ġare 1.5654494
Ġunable 3.430178
Ġto 0.0042097014
Ġbuy 2.4321196
Ġfood 1.0224127
. 3.070619
ĠLow 5.2958884
-income 0.18054904
Ġcountries 0.3609663
Ġface 2.8528595
Ġpolitical 7.080466
Ġunrest 3.0139027
. 2.6413171
ĠThe 1.6173424
Ġproblem 4.147724
Ġeman 7.602206
ates 0.068320565
Ġfrom 0.04853513
Ġa 2.4866297
Ġlack 3.218381
Ġof 0.010257455
Ġbetter 8.492181
Ġinvestment 5.6650095
Ġin 0.5510704
Ġthe 2.20513
Ġfood 2.6524277
Ġindustry 2.5467777
Ġand 1.7946011
Ġpoor 3.3405488
Ġmanagement 2.5979512
Ġof 0.34578788
Ġthe 1.5313841
Ġnational 5.108717
Ġfood 1.1500992
Ġsupply 1.382468
Ġ( 3.4124775
L 4.007105
ub 4.8641586
ell 1.1035074
, 0.27784804
Ġ 0.35072976
202 1.6004453
1 0.88193023
).Ċ 0.68586445
What 4.554378
Ġhappens 6.247707
Ġand 5.755027
Ġwhy 0.8509247
?Ċ 1.0638816
Initially 8.61876
, 0.033180386
Ġfood 2.1910133
Ġprices 0.5847329
Ġwere 1.449366
Ġaffordable 4.908257
Ġsince 5.6484566
Ġthe 1.2187481
Ġfarmers 4.4090524
Ġand 3.3824596
Ġthe 1.9142971
Ġgovernment 1.5921985
Ġhad 1.9369047
Ġinvested 3.124324
Ġa 3.253259
Ġlot 0.08531804
Ġin 0.3618147
Ġthe 0.44859463
Ġagriculture 2.7837563
Ġindustry 1.1829165
. 0.19293466
ĠSince 4.8503
Ġ 1.8232644
200 0.42434716
0 2.5416646
, 0.09693043
Ġfood 1.935368
Ġprices 0.2297593
Ġhave 0.3955745
Ġstarted 5.420827
Ġescalating 2.520801
Ġdue 2.0977416
Ġto 0.0021439549
Ġthe 2.1541042
Ġincreased 2.90421
Ġcost 3.5047498
Ġof 0.026578942
Ġfertil 3.1797938
izers 0.0266696
, 0.5415519
Ġfarm 4.747815
Ġmachinery 1.430107
, 0.10647241
Ġand 0.64766115
Ġchemicals 4.5537043
. 0.5483367
ĠAn 5.610982
Ġincrease 0.48291108
Ġin 0.036825657
Ġfood 2.9165063
Ġprices 0.31265688
Ġwas 4.674866
Ġdue 2.8485904
Ġto 0.006322167
Ġincrements 11.34242
Ġin 0.057401717
Ġfuels 8.225607
Ġprices 2.6763592
.Ċ 4.0839353
Impact 7.196869
Ġon 1.1614974
Ġthe 0.500213
Ġpoor 0.99446726
, 3.4930816
Ġlow 1.9542636
-income 0.07597598
Ġcounties 5.3630114
Ġand 1.4586753
Ġfarming 8.357436
Ġindustries 4.005921
Ċ 0.24802408
The 0.993153
Ġpoor 1.2682905
Ġspend 4.162493
Ġmost 1.9900553
Ġof 0.017725147
Ġtheir 0.027752893
Ġincome 0.8013294
Ġon 0.113613546
Ġfood 0.10049219
; 3.8981464
Ġhence 1.3476697
Ġescalating 4.9296575
Ġfood 0.17575054
Ġprices 0.025357101
Ġcontribute 6.060972
Ġto 0.087769754
Ġhigh 3.5705876
Ġexpenditure 6.2695355
, 2.911292
Ġwhich 1.6222838
Ġis 2.5923088
Ġnot 1.8060036
Ġmanageable 3.9101257
. 0.5194754
ĠThe 1.4382497
Ġhigher 6.5668473
Ġfood 1.3424165
Ġprices 0.15550071
Ġcontribute 3.0270524
Ġto 0.017957473
Ġhigher 3.6455724
Ġtransport 5.544073
Ġcosts 0.48349783
Ġthat 4.107069
Ġaffect 2.0857778
Ġfarmers 3.654234
’ 2.0891647
Ġincome 1.99193
. 0.7078092
ĠThe 1.3249061
Ġlow 3.039515
-income 0.123426124
Ġcountries 0.37651873
Ġface 2.6049755
Ġpressure 5.0645094
Ġfrom 1.2281456
Ġthe 1.2005209
Ġbills 8.749264
, 2.7844577
Ġleading 4.4981976
Ġto 0.023572361
Ġlow 4.709212
Ġeconomic 3.0762773
Ġdevelopment 2.4444394
Ġand 2.189617
Ġgrowth 4.435593
Ġ( 2.2130675
L 0.68285966
ub 0.03286414
ell 0.00028386168
, 0.008767137
Ġ 0.004612996
202 0.0015611659
1 0.00418121
).Ċ 0.14774838
Policy 3.8930674
Ġrecommendation 3.785993
Ċ 0.32725722
U 7.336073
rg 0.41206858
ent 0.09286216
Ġaction 1.3639932
Ġis 1.1221707
Ġrequired 1.0242156
Ġto 0.23156881
Ġeliminate 3.3019464
Ġdistress 11.243782
Ġthat 4.4726057
Ġeman 4.8830624
ates 0.020814432
Ġfrom 0.018201686
Ġescalating 1.434814
Ġfood 0.032362916
Ġprices 0.020984769
, 3.7433195
Ġand 2.5835023
Ġmore 5.5694284
Ġresources 3.6500154
Ġare 1.788332
Ġneeded 1.0342562
Ġto 0.43253526
Ġsupport 2.832493
ĠW 12.501069
EP 12.929145
Ġand 2.904294
Ġassist 6.383898
Ġdeveloping 3.6405663
Ġcountries 0.20407844
Ġwith 3.3246555
Ġhigher 4.2170224
Ġimport 1.178835
Ġbills 0.121708
. 0.57465905
ĠRelevant 7.965329
Ġpolicies 3.250034
Ġare 2.505935
Ġrequired 1.0964459
Ġto 0.18018346
Ġhelp 3.743856
Ġfarmers 2.3115277
Ġproduce 3.602441
Ġmore 0.7465312
Ġfood 0.75088847
.Ċ 3.4731712
Conclusion 3.6446037
Ċ 0.08228971
The 1.4917876
Ġcorrect 9.38266
Ġmeasure 5.3286157
Ġis 1.6383678
Ġneeded 2.2006865
Ġto 0.14864674
Ġcontrol 3.4517689
Ġthe 1.2549716
Ġfood 2.2214255
Ġprices 1.0026833
Ġand 1.4459227
Ġpromote 4.7325163
Ġeconomic 2.5031056
Ġgrowth 0.5511575
. 1.285563
ĠThe 1.1708351
Ġgovernment 1.4842454
Ġmust 2.6467159
Ġregulate 4.9540553
Ġthe 0.5254619
Ġoil 5.54228
Ġprices 1.0730488
Ġto 1.1526841
Ġenable 4.0590787
Ġfarmers 0.96160585
Ġand 2.899452
Ġthe 1.4914461
Ġagriculture 3.672941
Ġindustry 0.20224863
Ġto 0.07237101
Ġreduce 3.3934278
Ġtheir 1.793551
Ġincome 6.617385
-ex 9.184492
pend 0.009114852
iture 0.018533845
Ġhence 8.303934
Ġlow 5.44804
Ġfood 0.6933923
Ġprices 0.10007315
.Ċ 1.0131965
2 0.6817344
Ġnd 5.7887316
Ġpolicy 1.2848445
Ġbrief 0.06998334
Ċ 0.08506537
Natural 7.092251
Ġresources 3.0298223
: 3.3917131
Ġclimate 6.290574
Ġchange 0.18759124
Ġchallenge 6.558397
Ċ 0.36545008
The 2.3769789
Ġchange 6.218004
Ġof 1.7652311
Ġclimate 0.6680438
Ġhas 1.7911568
Ġoccurred 4.945563
Ġrecently 5.8704047
Ġin 3.2800746
Ġthe 0.5735094
Ġcountries 6.951678
Ġthat 1.7863586
Ġcannot 6.479084
Ġhandle 2.7259865
Ġthe 0.8909569
Ġchange 2.175037
. 0.87729067
ĠThe 0.787832
Ġdeveloping 6.0913115
Ġcountries 0.18244533
Ġare 1.1993641
Ġthe 2.1482403
Ġmost 0.5099925
Ġaffected 0.14240474
Ġbecause 3.036069
Ġthey 0.6528086
Ġdepend 2.9950094
Ġon 0.12799643
Ġnatural 1.253367
Ġresources 0.038271904
. 1.7443846
ĠThe 0.8326488
Ġcountries 2.745842
Ġface 3.576563
Ġglobal 6.432686
Ġwarming 0.31401265
Ġdue 2.6679525
Ġto 0.0026141827
Ġindustrial 4.270177
ization 0.3233878
. 1.956827
ĠEffective 8.597342
Ġmanagement 2.4303346
Ġof 0.2131147
Ġthe 1.3733113
Ġnatural 0.86295676
Ġresources 0.081674345
Ġleads 5.4262395
Ġto 0.00392713
Ġclimate 3.7309942
Ġand 5.9055543
Ġsuitable 9.467795
Ġdevelopment 3.7172616
.Ċ 1.8182082
So 8.686063
il 0.37651625
Ġerosion 0.8762033
Ċ 1.7048825
Most 4.90898
Ġof 0.9194806
Ġthe 0.013732547
Ġlands 4.6848435
Ġare 1.3165746
Ġaffected 2.6015787
Ġby 0.107270084
Ġsoil 0.3803628
Ġerosion 0.029196883
Ġdue 1.5131338
Ġto 0.0010462664
Ġcutting 5.6692276
Ġdown 0.6167113
Ġthe 2.4502783
Ġtrees 0.31187752
Ġand 1.3696477
Ġpoor 2.8555617
Ġmanagement 1.9744737
Ġof 0.2466438
Ġthe 0.3959582
Ġenvironment 3.517503
, 3.9087176
Ġlike 6.4944177
Ġpoor 3.1916661
Ġcultivating 7.630247
Ġand 3.04529
Ġgrazing 4.062818
Ġpractices 1.252253
.Ċ 2.5225756
Low 6.826528
Ġrain 4.932789
falls 0.6390358
Ċ 0.50665665
Low 2.4918203
Ġrain 1.1890478
Ġleads 9.295066
Ġto 0.003822753
Ġlow 1.8537349
Ġcrop 2.0487654
Ġproduction 0.69776314
Ġand 1.4397453
Ġdesert 5.2900324
ification 0.049198676
. 0.9264488
ĠIt 3.1283207
Ġmakes 4.3514056
Ġthe 0.7466664
Ġfarmers 3.9864745
Ġhave 4.344968
Ġdifficulty 4.6109943
Ġplanning 6.986319
Ġcrop 6.227451
Ġcultivation 3.162521
, 2.3306885
Ġresulting 4.045871
Ġin 0.042790085
Ġa 2.9065685
Ġdeveloping 11.454279
Ġcountry 0.41065833
.Ċ 2.7093427
Policy 5.8566656
Ġrecommendation 0.5453046
Ċ 0.0756848
The 1.0471638
Ġgovernment 0.93714845
Ġprotects 9.45152
Ġthe 0.29915497
Ġwater 4.8668404
Ġcatch 3.3130555
ment 0.6017058
Ġareas 0.2134386
Ġand 1.3948551
Ġnatural 4.16001
Ġforests 1.5476217
Ġwithin 8.0167675
Ġar 7.934284
id 0.43850842
Ġand 0.59776515
Ġsemi 0.22609271
-ar 0.06244175
id 0.00026896485
Ġregions 1.8971496
. 0.773493
ĠThe 0.84412646
Ġgovernment 0.45883167
Ġpromotes 4.186802
Ġfarm 6.740504
Ġlevels 10.123512
Ġto 2.1184323
Ġmitigate 5.20967
Ġclimate 2.4160867
Ġchange 0.19504161
.Ċ 1.8682177
Conclusion 0.81513053
Ċ 0.014504637
The 0.78601474
Ġpractical 9.031797
Ġmeasures 1.6727587
Ġto 3.0408118
Ġbe 3.211596
Ġput 3.5787303
Ġin 0.15916593
Ġplace 0.04019186
Ġto 0.8494674
Ġcontrol 2.5935323
Ġadverse 6.472774
Ġweather 2.8303504
Ġchanges 2.2254395
Ġthat 3.4092555
Ġcontribute 3.768323
Ġto 0.008568126
Ġclimate 1.465193
Ġchange 0.14634094
Ġ( 4.600128
L 1.4753511
ub 0.1156637
ell 0.0029656962
, 0.011016467
Ġ 0.004453974
202 0.006776946
1 0.01595577
).Ċ 0.08706535
3 0.36656982
Ġrd 0.3844624
Ġpolicy 0.068654075
Ġbrief 0.012766032
Ċ 0.026264995
Suit 9.984088
able 0.047400244
Ġagriculture 5.95099
Ġand 2.507103
Ġrural 4.1054335
Ġdevelopment 0.40144223
Ġ– 5.12099
Ġstrengthening 8.040678
Ġrural 3.299749
Ġand 3.9185681
Ġagricultural 1.1137341
Ġbusiness 6.55361
Ċ 0.48544148
Suit 3.2577891
able 0.004503704
Ġagriculture 0.20974398
Ġand 0.49583733
Ġrural 0.076039396
Ġdevelopment 0.07210552
Ġsatisfy 11.333773
Ġeconomic 5.448143
, 1.0453367
Ġsocial 0.37142783
, 0.47672328
Ġand 0.23043695
Ġcultural 2.8475306
Ġneeds 0.41424623
Ġwithout 6.7358932
Ġendanger 4.265643
ing 0.0016751834
Ġfuture 3.1117182
Ġgenerations 0.3098979
. 0.34660545
ĠThere 4.5653763
Ġmust 3.5259464
Ġbe 0.030686278
Ġan 2.3718638
Ġincreased 4.214472
Ġand 4.0383415
Ġexpanded 5.822084
Ġrural 3.1610081
Ġeconomy 2.403432
Ġfor 3.5893173
Ġbetter 3.9820223
Ġagriculture 3.0819762
Ġand 0.7425715
Ġrural 0.5320331
Ġdevelopment 0.18029067
.Ċ 1.4937441
Free 9.432799
Ġand 2.6886964
Ġfair 0.46802467
Ġtrade 0.58718765
Ċ 0.49734643
Free 2.0636318
Ġand 0.2811158
Ġfair 0.024966741
Ġtrade 0.059851985
Ġhelps 3.433981
Ġdeveloping 3.536747
Ġcountries 0.10881904
Ġprovided 12.6707535
Ġthey 1.3358179
Ġhave 1.4152111
Ġhumans 12.504778
, 2.15666
Ġtechnology 4.2394085
, 0.08665779
Ġand 0.40952638
Ġinfrastructure 3.2081845
Ġto 1.3457749
Ġcompete 2.4351315
Ġinternationally 3.6196074
.Ċ 1.3618951
Income 7.260605
Ġgeneration 2.3223677
Ċ 0.3400684
Road 12.3259325
Ġdevelopment 3.351457
Ġand 1.3797963
Ġtransport 3.7947884
Ġpromote 5.971743
Ġaccess 4.459509
Ġto 0.09660774
Ġthe 2.4957938
Ġmarkets 1.5966549
, 1.5233058
Ġhence 3.4404182
Ġincreasing 2.036088
Ġincome 0.83349013
Ġamong 5.5318937
Ġthe 0.49671945
Ġfarmers 1.2510972
. 1.2217271
ĠThe 1.4487112
Ġpromotion 5.731517
Ġof 0.08855179
Ġthe 2.4614787
Ġlocal 4.13095
Ġproducts 3.4694228
Ġfacilitates 5.7184467
Ġincrements 13.760876
Ġin 0.07122524
Ġthe 1.2969697
Ġrevenue 4.6470513
.Ċ 2.1996067
Policy 1.8810172
Ġrecommendation 0.12967706
Ċ 0.020640573
There 2.9810064
Ġis 0.7954314
Ġa 0.22365873
Ġneed 0.07168706
Ġto 0.67391896
Ġimprove 2.9283657
Ġaccess 3.3670957
Ġto 0.088149674
Ġthe 1.6986489
Ġmarkets 1.0390892
Ġand 1.2482934
Ġdevelop 3.834082
Ġsound 7.4959173
Ġtransport 3.1211247
Ġsystems 1.2709875
, 3.1739392
Ġroads 4.7859
, 0.18435116
Ġand 0.19460672
Ġcommunication 2.7271862
Ġchannels 3.357755
Ġfor 2.9552221
Ġmore 4.7842364
Ġproduction 4.1503263
Ġand 0.8734314
Ġincreased 3.1857853
Ġincome 0.72924036
Ġgeneration 2.4489014
.Ċ 1.1003008
Conclusion 0.29320243
Ċ 0.008049111
The 1.1302489
Ġbest 4.740221
Ġmeasures 2.4495096
Ġare 1.3911285
Ġrequired 1.1984329
Ġto 0.1086658
Ġfacilitate 3.3362277
Ġincome 3.600125
Ġgeneration 0.09638746
Ġto 3.1919262
Ġsatisfy 6.1513033
Ġthe 0.5482532
Ġeconomy 4.6930513
.Ċ 2.4209952
Gun 13.28801
ĠViolence 1.8609506
Ġin 1.9132836
ĠAmerica 1.4268436
Ċ 0.47529122
Gun 1.8046483
Ġviolence 0.19112569
Ġis 1.1125878
Ġviolence 5.884343
Ġthrough 5.5661397
Ġpistols 9.258832
, 0.76456875
Ġshot 2.6675248
guns 0.006019334
, 0.033125494
Ġand 0.886887
Ġmachine 4.678416
Ġguns 0.058843195
. 0.38658738
ĠThe 1.2824873
Ġviolence 2.067092
Ġresults 2.816288
Ġin 0.8511134
Ġhomicide 4.9208245
, 0.23543511
Ġmass 5.2458253
Ġshooting 1.4390557
, 0.056815676
Ġor 3.9228442
Ġsuicide 0.9063164
. 0.29120937
ĠIn 3.5252109
ĠAmerica 1.6397591
, 0.024788018
Ġmany 3.9852018
Ġpeople 0.57840556
Ġhave 1.7614511
Ġdied 1.4514347
Ġdue 0.8583448
Ġto 0.0012154751
Ġgun 0.33136126
Ġviolence 0.07510774
. 0.8309145
ĠGun 2.8832827
Ġviolence 0.18572995
Ġin 3.1286538
ĠAmerica 0.22984855
Ġneeds 4.7867727
Ġapplicable 10.798441
Ġbackground 9.240788
Ġchecks 3.450913
. 3.110742
ĠPolit 6.640662
icians 0.016487667
Ġand 1.9785444
Ġthe 1.6016628
Ġconcerned 5.059742
Ġgroups 3.4081707
Ġneed 2.6584466
Ġto 0.12595187
Ġensure 4.3045025
Ġfederal 7.6612215
Ġregulation 4.6041365
Ġon 2.0516224
Ġgun 1.0434452
Ġownership 1.6750572
Ġ( 2.660408
V 5.3849516
ern 4.0293827
ick 0.45143756
Ġet 2.7139468
Ġal 0.04883035
., 0.16377607
Ġ 0.013202711
201 1.2375174
7 2.0681324
). 2.2059088
ĠThe 1.1697178
Ġgovernment 1.8820306
Ġneeds 1.8450961
Ġto 0.077751465
Ġinvolve 6.4532423
Ġa 4.346935
Ġjustice 8.961164
Ġdepartment 1.7611125
Ġto 0.8610161
Ġensure 2.5396235
Ġanyone 7.929076
Ġwho 1.2749747
Ġviolates 3.4404898
Ġthe 0.51515174
Ġrelated 9.205091
Ġlaws 0.85964173
Ġon 4.3058286
Ġgun 0.35533953
Ġviolence 1.2477221
Ġis 0.64639115
Ġprosecuted 1.9982073
Ġin 3.6732862
Ġcourt 1.5186057
.Ċ 0.89796597
The 1.8472164
Ġgovernment 1.2717416
Ġand 3.4626577
Ġpoliticians 3.5451496
Ġhave 3.1159585
Ġdeveloped 4.8743773
Ġthe 3.2256951
Ġnecessary 3.195599
Ġplan 6.753896
, 3.939206
Ġsuch 3.621369
Ġas 0.008388447
Ġno 7.127366
Ġsales 4.7141953
Ġof 0.61421394
Ġfirearms 2.231545
Ġto 0.304181
Ġun 5.974599
licensed 1.4955944
Ġgroups 7.0669203
Ġor 2.2609022
Ġindividuals 1.0449679
, 1.5307772
Ġlicensing 6.1603904
Ġthe 3.4692497
Ġcompany 9.5460415
Ġthat 1.2855579
Ġsells 1.3094782
Ġthe 1.7277129
Ġgun 2.4894495
, 0.5161689
Ġand 0.59616894
Ġprohibiting 4.7256722
Ġindividuals 3.7702503
Ġfrom 2.7683403
Ġcarrying 2.3060408
Ġthe 2.7628493
Ġweapon 3.253003
Ġin 1.0017871
Ġpublic 0.85790324
. 1.4820117
ĠThe 0.72339016
Ġimplementation 5.9236956
Ġof 0.09683629
Ġthe 0.42088437
Ġfederal 4.761119
Ġregulations 2.2609563
Ġwill 2.4491618
Ġminimize 3.4724605
Ġgun 0.6737398
Ġviolence 0.08590589
Ġamong 4.737856
ĠAmericans 2.257545
. 1.5964777
ĠThe 0.78896224
Ġpolitician 7.600738
Ġorganized 10.029264
Ġthe 1.8371837
Ġcongress 4.5198846
Ġto 0.76513475
Ġsupport 4.428145
Ġthe 0.48620328
Ġnational 4.802593
Ġlaws 4.0723433
Ġgoverning 5.2335706
Ġmachine 10.961107
Ġguns 0.44680217
’ 5.283947
Ġlicensing 5.731333
. 1.811969
ĠIf 5.591635
Ġthe 0.5425779
Ġset 9.104288
Ġregulations 2.1847324
Ġare 0.28414366
Ġadher 3.8963175
ed 0.00036335218
Ġto 0.030615067
, 0.14137487
Ġthere 2.0655022
Ġwill 0.13942882
Ġbe 0.019990506
Ġa 1.5760093
Ġreduction 0.98759407
Ġin 0.15192221
Ġgun 0.52222204
Ġviolence 0.09474699
Ġin 1.1579536
ĠAmerica 0.26533583
Ġ( 0.8440234
V 0.18568131
ern 0.0013054758
ick 0.001135097
Ġet 0.019913966
Ġal 0.0034915004
., 0.010235741
Ġ 0.0024685247
201 0.0042581386
7 0.0027365205
). 2.622346
